% seed = 8241115

mint = 70;
% maxt = 225;

nActs = 42;
dur = [0,6,10,8,3,4,9,9,2,8,6,8,1,3,8,2,8,2,3,4,8,7,1,3,3,4,8,7,6,9,2,2,8,8,9,9,5,7,1,4,10,0];

nSkills = 4;
sreq = [| 0,0,0,0,
	| 3,0,0,4,
	| 4,0,0,5,
	| 5,4,0,0,
	| 6,4,0,0,
	| 3,0,3,0,
	| 2,0,2,0,
	| 0,3,7,0,
	| 0,2,0,2,
	| 4,3,0,0,
	| 4,0,6,0,
	| 4,0,6,0,
	| 0,5,0,3,
	| 6,0,7,0,
	| 4,0,0,4,
	| 2,0,0,4,
	| 4,0,2,0,
	| 0,2,0,5,
	| 0,7,1,0,
	| 0,0,6,4,
	| 3,0,5,0,
	| 4,0,0,2,
	| 0,6,0,6,
	| 2,3,0,0,
	| 0,2,4,0,
	| 5,3,0,0,
	| 0,0,5,6,
	| 0,2,2,0,
	| 5,0,6,0,
	| 4,0,0,4,
	| 0,0,6,3,
	| 5,0,0,5,
	| 2,0,0,7,
	| 0,4,0,5,
	| 0,4,0,3,
	| 3,0,0,2,
	| 4,0,4,0,
	| 3,0,0,3,
	| 0,5,3,0,
	| 4,0,4,0,
	| 4,6,0,0,
	| 0,0,0,0, |];

nResources = 25;
mastery = [| false,true,true,true,
	| false,true,false,false,
	| false,true,false,true,
	| true,true,true,false,
	| true,false,true,true,
	| false,true,true,true,
	| false,false,true,false,
	| true,true,true,false,
	| false,true,false,false,
	| true,true,true,false,
	| false,false,true,false,
	| false,true,true,false,
	| true,false,true,false,
	| true,true,true,false,
	| false,true,true,false,
	| true,false,true,false,
	| false,false,true,true,
	| false,false,true,false,
	| false,false,true,true,
	| false,true,false,true,
	| true,false,true,true,
	| false,false,false,true,
	| true,true,true,false,
	| true,true,false,false,
	| true,false,false,false, |];

nPrecs = 85;
pred = [1,1,1,2,2,2,3,3,3,4,4,4,5,5,5,6,6,6,7,7,7,8,8,8,9,10,10,10,11,11,11,12,12,12,13,13,13,14,14,14,15,15,15,16,16,16,17,17,17,18,18,18,19,19,19,20,21,21,21,22,22,23,24,25,26,26,26,27,27,28,29,30,31,31,32,33,34,35,35,36,37,38,39,40,41];
succ = [2,3,4,9,25,38,14,15,16,5,6,7,26,11,12,13,37,8,35,12,22,26,19,14,10,18,22,30,25,13,14,25,34,39,19,20,23,17,18,35,26,27,24,36,28,24,27,23,40,41,20,23,35,21,31,24,29,30,32,37,40,28,29,36,28,30,32,29,31,38,33,34,33,32,41,34,38,36,40,41,39,39,42,42,42];

nUnrels = 395;
unpred = [2,2,2,2,2,2,2,2,2,2,2,2,2,2,2,2,2,2,2,2,3,3,3,3,3,3,3,3,3,3,3,3,3,3,3,4,4,4,4,5,5,5,5,5,5,5,5,5,6,6,6,6,6,6,6,6,6,7,7,7,7,7,7,7,7,7,7,7,7,7,7,7,7,7,7,7,7,7,7,7,8,8,8,8,8,8,8,8,8,8,9,9,9,9,9,9,9,9,9,9,9,9,9,9,9,9,10,10,10,10,10,10,10,10,10,10,10,10,10,10,10,10,11,11,11,11,11,11,12,12,12,12,12,12,12,12,12,12,12,12,12,12,12,12,12,12,12,12,12,12,12,13,13,13,13,13,13,13,13,13,13,14,14,14,14,14,14,14,14,14,15,15,15,15,15,15,15,15,15,15,15,15,15,16,16,16,16,16,16,16,16,16,16,16,16,16,16,16,16,17,17,17,17,17,17,17,17,17,17,17,17,18,18,18,18,18,18,18,18,18,18,18,18,18,19,19,19,19,19,19,19,19,19,20,20,20,20,20,20,20,20,20,20,20,20,20,20,20,21,21,21,21,21,21,21,21,21,21,21,21,22,22,22,22,22,22,22,22,22,22,22,22,22,22,22,22,23,23,23,23,23,23,23,23,23,23,23,23,23,23,23,24,24,24,24,24,24,24,24,24,24,24,24,25,25,25,25,25,25,25,25,25,25,25,25,25,25,26,26,26,26,26,26,26,26,27,27,27,27,27,27,28,28,28,28,28,28,28,28,28,28,28,29,29,29,29,29,29,29,29,30,30,30,30,30,30,30,30,31,31,31,31,32,32,32,32,32,32,32,32,33,33,33,33,33,34,34,34,34,34,35,35,35,36,36,36,36,37,37,37,38,38,39,39,40];
unsucc = [3,4,5,6,7,8,11,12,13,14,15,16,17,19,21,26,27,31,32,35,4,5,6,7,8,9,10,11,12,13,19,21,22,25,37,9,10,15,16,6,7,8,9,10,15,16,22,37,7,9,10,11,12,15,16,22,25,8,9,10,11,13,14,15,16,17,18,19,20,21,23,24,26,27,28,29,30,31,32,33,9,10,11,12,13,15,16,22,25,37,11,12,13,14,15,16,17,19,21,25,26,27,31,32,35,36,11,12,13,14,15,16,17,19,21,25,26,27,31,32,35,36,12,15,16,22,26,37,13,14,15,16,17,18,19,20,21,22,23,24,26,27,28,29,30,31,32,33,35,37,40,14,15,16,17,18,22,25,26,27,37,15,16,19,21,22,25,26,30,37,16,17,18,19,20,21,22,23,25,35,36,37,40,17,18,19,20,21,22,23,25,26,27,30,31,32,35,37,40,18,19,20,21,22,24,25,26,30,35,36,37,19,21,22,25,26,27,30,31,32,35,36,37,40,20,22,23,24,25,26,27,28,37,21,22,23,25,26,27,28,30,31,32,35,36,37,40,41,22,23,24,25,26,27,28,31,35,36,37,40,23,24,25,26,27,28,29,30,31,32,33,34,35,36,38,41,24,25,26,27,29,30,31,32,33,34,35,36,37,40,41,25,26,27,28,30,31,32,35,36,37,40,41,26,27,28,29,30,31,32,33,34,35,37,38,39,40,27,29,31,33,35,36,37,40,28,30,35,36,37,40,29,30,31,32,33,34,35,36,37,40,41,30,31,32,35,36,37,40,41,31,32,33,35,36,37,40,41,35,36,37,40,33,34,35,36,37,38,39,40,35,36,37,40,41,35,36,37,40,41,37,38,39,37,38,39,40,38,40,41,40,41,40,41,41];

USEFUL_RES = [{},
	{1,3,4,5,6,8,10,13,14,16,17,19,20,21,22,23,24,25},
	{1,3,4,5,6,8,10,13,14,16,17,19,20,21,22,23,24,25},
	{1,2,3,4,5,6,8,9,10,12,13,14,15,16,20,21,23,24,25},
	{1,2,3,4,5,6,8,9,10,12,13,14,15,16,20,21,23,24,25},
	{1,4,5,6,7,8,10,11,12,13,14,15,16,17,18,19,21,23,24,25},
	{1,4,5,6,7,8,10,11,12,13,14,15,16,17,18,19,21,23,24,25},
	{1,2,3,4,5,6,7,8,9,10,11,12,13,14,15,16,17,18,19,20,21,23,24},
	{1,2,3,4,5,6,8,9,10,12,14,15,17,19,20,21,22,23,24},
	{1,2,3,4,5,6,8,9,10,12,13,14,15,16,20,21,23,24,25},
	{1,4,5,6,7,8,10,11,12,13,14,15,16,17,18,19,21,23,24,25},
	{1,4,5,6,7,8,10,11,12,13,14,15,16,17,18,19,21,23,24,25},
	{1,2,3,4,5,6,8,9,10,12,14,15,17,19,20,21,22,23,24},
	{1,4,5,6,7,8,10,11,12,13,14,15,16,17,18,19,21,23,24,25},
	{1,3,4,5,6,8,10,13,14,16,17,19,20,21,22,23,24,25},
	{1,3,4,5,6,8,10,13,14,16,17,19,20,21,22,23,24,25},
	{1,4,5,6,7,8,10,11,12,13,14,15,16,17,18,19,21,23,24,25},
	{1,2,3,4,5,6,8,9,10,12,14,15,17,19,20,21,22,23,24},
	{1,2,3,4,5,6,7,8,9,10,11,12,13,14,15,16,17,18,19,20,21,23,24},
	{1,3,4,5,6,7,8,10,11,12,13,14,15,16,17,18,19,20,21,22,23},
	{1,4,5,6,7,8,10,11,12,13,14,15,16,17,18,19,21,23,24,25},
	{1,3,4,5,6,8,10,13,14,16,17,19,20,21,22,23,24,25},
	{1,2,3,4,5,6,8,9,10,12,14,15,17,19,20,21,22,23,24},
	{1,2,3,4,5,6,8,9,10,12,13,14,15,16,20,21,23,24,25},
	{1,2,3,4,5,6,7,8,9,10,11,12,13,14,15,16,17,18,19,20,21,23,24},
	{1,2,3,4,5,6,8,9,10,12,13,14,15,16,20,21,23,24,25},
	{1,3,4,5,6,7,8,10,11,12,13,14,15,16,17,18,19,20,21,22,23},
	{1,2,3,4,5,6,7,8,9,10,11,12,13,14,15,16,17,18,19,20,21,23,24},
	{1,4,5,6,7,8,10,11,12,13,14,15,16,17,18,19,21,23,24,25},
	{1,3,4,5,6,8,10,13,14,16,17,19,20,21,22,23,24,25},
	{1,3,4,5,6,7,8,10,11,12,13,14,15,16,17,18,19,20,21,22,23},
	{1,3,4,5,6,8,10,13,14,16,17,19,20,21,22,23,24,25},
	{1,3,4,5,6,8,10,13,14,16,17,19,20,21,22,23,24,25},
	{1,2,3,4,5,6,8,9,10,12,14,15,17,19,20,21,22,23,24},
	{1,2,3,4,5,6,8,9,10,12,14,15,17,19,20,21,22,23,24},
	{1,3,4,5,6,8,10,13,14,16,17,19,20,21,22,23,24,25},
	{1,4,5,6,7,8,10,11,12,13,14,15,16,17,18,19,21,23,24,25},
	{1,3,4,5,6,8,10,13,14,16,17,19,20,21,22,23,24,25},
	{1,2,3,4,5,6,7,8,9,10,11,12,13,14,15,16,17,18,19,20,21,23,24},
	{1,4,5,6,7,8,10,11,12,13,14,15,16,17,18,19,21,23,24,25},
	{1,2,3,4,5,6,8,9,10,12,13,14,15,16,20,21,23,24,25},
	{}];

POTENTIAL_ACT = [{2,3,4,5,6,7,8,9,10,11,12,13,14,15,16,17,18,19,20,21,22,23,24,25,26,27,28,29,30,31,32,33,34,35,36,37,38,39,40,41},
	{4,5,8,9,10,13,18,19,23,24,25,26,28,34,35,39,41},
	{2,3,4,5,8,9,10,13,15,16,18,19,20,22,23,24,25,26,27,28,30,31,32,33,34,35,36,38,39,41},
	{2,3,4,5,6,7,8,9,10,11,12,13,14,15,16,17,18,19,20,21,22,23,24,25,26,27,28,29,30,31,32,33,34,35,36,37,38,39,40,41},
	{2,3,4,5,6,7,8,9,10,11,12,13,14,15,16,17,18,19,20,21,22,23,24,25,26,27,28,29,30,31,32,33,34,35,36,37,38,39,40,41},
	{2,3,4,5,6,7,8,9,10,11,12,13,14,15,16,17,18,19,20,21,22,23,24,25,26,27,28,29,30,31,32,33,34,35,36,37,38,39,40,41},
	{6,7,8,11,12,14,17,19,20,21,25,27,28,29,31,37,39,40},
	{2,3,4,5,6,7,8,9,10,11,12,13,14,15,16,17,18,19,20,21,22,23,24,25,26,27,28,29,30,31,32,33,34,35,36,37,38,39,40,41},
	{4,5,8,9,10,13,18,19,23,24,25,26,28,34,35,39,41},
	{2,3,4,5,6,7,8,9,10,11,12,13,14,15,16,17,18,19,20,21,22,23,24,25,26,27,28,29,30,31,32,33,34,35,36,37,38,39,40,41},
	{6,7,8,11,12,14,17,19,20,21,25,27,28,29,31,37,39,40},
	{4,5,6,7,8,9,10,11,12,13,14,17,18,19,20,21,23,24,25,26,27,28,29,31,34,35,37,39,40,41},
	{2,3,4,5,6,7,8,10,11,12,14,15,16,17,19,20,21,22,24,25,26,27,28,29,30,31,32,33,36,37,38,39,40,41},
	{2,3,4,5,6,7,8,9,10,11,12,13,14,15,16,17,18,19,20,21,22,23,24,25,26,27,28,29,30,31,32,33,34,35,36,37,38,39,40,41},
	{4,5,6,7,8,9,10,11,12,13,14,17,18,19,20,21,23,24,25,26,27,28,29,31,34,35,37,39,40,41},
	{2,3,4,5,6,7,8,10,11,12,14,15,16,17,19,20,21,22,24,25,26,27,28,29,30,31,32,33,36,37,38,39,40,41},
	{2,3,6,7,8,9,11,12,13,14,15,16,17,18,19,20,21,22,23,25,27,28,29,30,31,32,33,34,35,36,37,38,39,40},
	{6,7,8,11,12,14,17,19,20,21,25,27,28,29,31,37,39,40},
	{2,3,6,7,8,9,11,12,13,14,15,16,17,18,19,20,21,22,23,25,27,28,29,30,31,32,33,34,35,36,37,38,39,40},
	{2,3,4,5,8,9,10,13,15,16,18,19,20,22,23,24,25,26,27,28,30,31,32,33,34,35,36,38,39,41},
	{2,3,4,5,6,7,8,9,10,11,12,13,14,15,16,17,18,19,20,21,22,23,24,25,26,27,28,29,30,31,32,33,34,35,36,37,38,39,40,41},
	{2,3,9,13,15,16,18,20,22,23,27,30,31,32,33,34,35,36,38},
	{2,3,4,5,6,7,8,9,10,11,12,13,14,15,16,17,18,19,20,21,22,23,24,25,26,27,28,29,30,31,32,33,34,35,36,37,38,39,40,41},
	{2,3,4,5,6,7,8,9,10,11,12,13,14,15,16,17,18,19,21,22,23,24,25,26,28,29,30,32,33,34,35,36,37,38,39,40,41},
	{2,3,4,5,6,7,10,11,12,14,15,16,17,21,22,24,26,29,30,32,33,36,37,38,40,41}];
